%%%mzn-stat: initTime=0.005395061
%%%mzn-stat: objective=452
%%%mzn-stat: nodes=6535
%%%mzn-stat: restarts=0
%%%mzn-stat: peakDepth=176
%%%mzn-stat: solveTime=0.684192779
%%%mzn-stat: variables=531
%%%mzn-stat: propagators=375
%%%mzn-stat: failures=5701
%%%mzn-stat: propagations=291099
%%%mzn-stat: nogoods=5701
%%%mzn-stat: AverageConflictSize=20.493422206630417
%%%mzn-stat: NumUnitNogoodsLearned=451
%%%mzn-stat: AverageLearnedNogoodLength=40.738993159094896
%%%mzn-stat: AverageBacktrackAmount=0
%%%mzn-stat: AverageLbd=10.439045781441852
%%%mzn-stat-end
maxleg = 452;
succ = array1d(1..20,[17, 1, 8, 14, 3, 15, 10, 12, 16, 11, 5, 18, 6, 9, 2, 20, 4, 19, 13, 7]);
% time elapsed: 2.29 s
----------
==========
% time elapsed: 2.29 s
%%%mzn-stat: initTime=0.005395061
%%%mzn-stat: objective=452
%%%mzn-stat: nodes=6535
%%%mzn-stat: restarts=0
%%%mzn-stat: peakDepth=176
%%%mzn-stat: solveTime=0.684200706
%%%mzn-stat: variables=531
%%%mzn-stat: propagators=375
%%%mzn-stat: failures=5701
%%%mzn-stat: propagations=291099
%%%mzn-stat: nogoods=5701
%%%mzn-stat: AverageConflictSize=20.493422206630417
%%%mzn-stat: NumUnitNogoodsLearned=451
%%%mzn-stat: AverageLearnedNogoodLength=40.738993159094896
%%%mzn-stat: AverageBacktrackAmount=0
%%%mzn-stat: AverageLbd=10.439045781441852
%%%mzn-stat-end
